306 307 308 312 
353 354 355 359 
383 384 385 389 
412 413 414 418 
442 443 444 448 
470 471 472 476 
499 501 503 509 
530 532 534 540 
562 563 565 569 
591 592 594 598 
621 622 624 628 
651 652 654 658 
681 682 684 688 
711 712 714 718 
741 742 744 748 
771 772 774 778 
801 802 804 808 
831 832 834 838 
861 862 864 868 
891 892 894 898 
921 922 924 928 
952 953 955 959 
981 983 985 990 
1012 1014 1016 1021 
1041 1043 1045 1050 
1072 1074 1076 1081 
1097 1099 1101 1106 
1127 1129 1131 1136 
1166 1167 1168 1172 
1226 1227 1228 1232 
1286 1287 1288 1292 
1346 1347 1348 1352 
1410 1411 1412 1416 
